; benchmark generated from python API
(set-info :status unknown)
(declare-fun DISJ_W_S2_R_S1 () Bool)
(declare-fun W_S2_V2 () Bool)
(declare-fun R_S2_V4 () Bool)
(declare-fun R_S2_V3 () Bool)
(declare-fun R_S2_V1 () Bool)
(declare-fun W_S2_V5 () Bool)
(declare-fun R_S2_V5 () Bool)
(declare-fun W_S2_V1 () Bool)
(declare-fun W_S2_V3 () Bool)
(declare-fun W_S1_V4 () Bool)
(declare-fun DISJ_W_S1_R_S2 () Bool)
(declare-fun DISJ_W_S2_R_S2 () Bool)
(declare-fun R_E1_V4 () Bool)
(declare-fun R_E1_V5 () Bool)
(declare-fun W_S1_V5 () Bool)
(declare-fun R_S2_V2 () Bool)
(declare-fun R_S1_V4 () Bool)
(declare-fun R_S1_V5 () Bool)
(declare-fun R_S1_V2 () Bool)
(declare-fun R_S1_V3 () Bool)
(declare-fun R_S1_V1 () Bool)
(declare-fun R_E1_V2 () Bool)
(declare-fun DISJ_W_S2_R_E1 () Bool)
(declare-fun DISJ_W_S1_W_S2 () Bool)
(declare-fun R_E1_V3 () Bool)
(declare-fun DISJ_W_S1_R_S1 () Bool)
(declare-fun W_S2_V4 () Bool)
(declare-fun W_S1_V3 () Bool)
(declare-fun W_S1_V2 () Bool)
(declare-fun W_S1_V1 () Bool)
(declare-fun R_E1_V1 () Bool)
(declare-fun DISJ_W_S1_R_E1 () Bool)
(assert
 (let (($x3913 (not W_S2_V2)))
 (let (($x1853 (not R_S2_V4)))
 (let (($x2024 (not R_S2_V3)))
 (let (($x2797 (not R_S2_V1)))
 (let (($x2270 (not (and $x2797 $x2024 $x1853 $x3913 DISJ_W_S2_R_S1))))
 (let (($x1374 (not (and $x2797 $x1853 $x3913 (not W_S2_V5) DISJ_W_S2_R_S1))))
 (let (($x126 (not (and $x2797 (not R_S2_V5) $x1853 $x3913 DISJ_W_S2_R_S1))))
 (let (($x2192 (not (and $x2797 $x2024 $x3913 (not W_S2_V5) DISJ_W_S2_R_S1))))
 (let (($x4555 (not W_S2_V1)))
 (let (($x3571 (and $x4555 $x3913)))
 (let (($x1116 (not $x3571)))
 (let (($x42 (not (and $x2024 $x1853 (not W_S2_V5) DISJ_W_S2_R_S1))))
 (let (($x1578 (not (and $x1853 (not W_S2_V5) (not W_S2_V3) DISJ_W_S2_R_S1))))
 (let (($x1438 (not (and $x2024 (not W_S1_V4) (not W_S2_V5) DISJ_W_S2_R_S1))))
 (let (($x3274 (not (and DISJ_W_S1_R_S2 DISJ_W_S2_R_S1))))
 (let (($x4219 (not (and $x3913 DISJ_W_S2_R_S2))))
 (let (($x144 (not (and DISJ_W_S2_R_S1 DISJ_W_S2_R_S2))))
 (let (($x241 (not (and W_S1_V4 R_E1_V4))))
 (let (($x3385 (not (and W_S1_V5 R_E1_V5))))
 (let (($x2549 (forall ((V3_0 Int) )(forall ((V2_0 Int) )(forall ((V5_0 Int) )(forall ((V4_0 Int) )(forall ((MW_S1_V1 Bool) )(forall ((MW_S1_V3 Bool) )(forall ((MW_S1_V2 Bool) )(forall ((MW_S1_V5 Bool) )(forall ((MW_S1_V4 Bool) )(forall ((MW_S2_V1 Bool) )(forall ((MW_S2_V3 Bool) )(forall ((MW_S2_V2 Bool) )(forall ((MW_S2_V5 Bool) )(forall ((MW_S2_V4 Bool) )(forall ((S1_V1_!2447 Int) )(forall ((S1_V1_!2464 Int) )(forall ((S1_V1_!2474 Int) )(forall ((S2_V5_!2456 Int) )(forall ((S2_V5_!2461 Int) )(forall ((S2_V5_!2472 Int) )(forall ((S2_V5_!2482 Int) )(forall ((S1_V3_!2448 Int) )(forall ((S1_V3_!2465 Int) )(forall ((S1_V3_!2475 Int) )(forall ((S1_V2_!2449 Int) )(forall ((S1_V2_!2466 Int) )(forall ((S1_V2_!2476 Int) )(forall ((E1_!2446 Int) )(forall ((E1_!2452 Int) )(forall ((E1_!2463 Int) )(forall ((S2_V4_!2457 Int) )(forall ((S2_V4_!2462 Int) )(forall ((S2_V4_!2473 Int) )(forall ((S2_V4_!2483 Int) )(forall ((S1_V5_!2450 Int) )(forall ((S1_V5_!2467 Int) )(forall ((S1_V5_!2477 Int) )(forall ((S2_V1_!2453 Int) )(forall ((S2_V1_!2458 Int) )(forall ((S2_V1_!2469 Int) )(forall ((S2_V1_!2479 Int) )(forall ((S1_V4_!2451 Int) )(forall ((S1_V4_!2468 Int) )(forall ((S1_V4_!2478 Int) )(forall ((S2_V2_!2455 Int) )(forall ((S2_V2_!2460 Int) )(forall ((S2_V2_!2471 Int) )(forall ((S2_V2_!2481 Int) )(forall ((S2_V3_!2454 Int) )(forall ((S2_V3_!2459 Int) )(forall ((S2_V3_!2470 Int) )(forall ((S2_V3_!2480 Int) )(let (($x3730 (= (ite MW_S2_V4 S2_V4_!2462 (ite MW_S1_V4 S1_V4_!2451 V4_0)) (ite MW_S2_V4 S2_V4_!2483 (ite MW_S1_V4 S1_V4_!2478 (ite MW_S2_V4 S2_V4_!2473 (ite MW_S1_V4 S1_V4_!2468 V4_0)))))))
 (let (($x5937 (= (ite MW_S2_V5 S2_V5_!2461 (ite MW_S1_V5 S1_V5_!2450 V5_0)) (ite MW_S2_V5 S2_V5_!2482 (ite MW_S1_V5 S1_V5_!2477 (ite MW_S2_V5 S2_V5_!2472 (ite MW_S1_V5 S1_V5_!2467 V5_0)))))))
 (let ((?x1550 (ite MW_S1_V2 S1_V2_!2466 V2_0)))
 (let ((?x2769 (ite MW_S2_V2 S2_V2_!2471 ?x1550)))
 (let ((?x5926 (ite MW_S1_V2 S1_V2_!2476 ?x2769)))
 (let ((?x4993 (ite MW_S2_V2 S2_V2_!2481 ?x5926)))
 (let ((?x5882 (ite MW_S1_V2 S1_V2_!2449 V2_0)))
 (let ((?x5086 (ite MW_S2_V2 S2_V2_!2460 ?x5882)))
 (let (($x329 (= (ite MW_S2_V3 S2_V3_!2459 (ite MW_S1_V3 S1_V3_!2448 V3_0)) (ite MW_S2_V3 S2_V3_!2480 (ite MW_S1_V3 S1_V3_!2475 (ite MW_S2_V3 S2_V3_!2470 (ite MW_S1_V3 S1_V3_!2465 V3_0)))))))
 (let ((?x5939 (ite MW_S1_V1 S1_V1_!2464 E1_!2463)))
 (let ((?x2521 (ite MW_S2_V1 S2_V1_!2469 ?x5939)))
 (let ((?x1657 (+ 1 ?x2521)))
 (let ((?x3312 (ite MW_S1_V1 S1_V1_!2474 ?x1657)))
 (let ((?x3342 (ite MW_S2_V1 S2_V1_!2479 ?x3312)))
 (let ((?x2678 (ite MW_S2_V1 S2_V1_!2453 E1_!2452)))
 (let ((?x3319 (+ 1 ?x2678)))
 (let ((?x1433 (ite MW_S2_V1 S2_V1_!2458 ?x3319)))
 (let (($x1325 (and (not (<= V2_0 E1_!2446)) (>= (ite MW_S1_V1 S1_V1_!2447 E1_!2446) (+ (- 1) ?x5882)) (not (<= ?x5882 E1_!2452)) (not (<= (ite MW_S2_V2 S2_V2_!2455 ?x5882) ?x3319)) (>= ?x1433 (+ (- 1) ?x5086)) (not (<= V2_0 E1_!2463)) (not (<= ?x2769 ?x1657)) (>= ?x3342 (+ (- 1) ?x4993)))))
 (let (($x3195 (= S2_V3_!2480 S2_V3_!2470)))
 (let ((?x1876 (ite MW_S1_V4 S1_V4_!2468 V4_0)))
 (let ((?x3626 (ite MW_S2_V4 S2_V4_!2473 ?x1876)))
 (let ((?x828 (ite MW_S1_V4 S1_V4_!2478 ?x3626)))
 (let (($x1853 (not R_S2_V4)))
 (let ((?x2782 (ite MW_S1_V5 S1_V5_!2467 V5_0)))
 (let ((?x2961 (ite MW_S2_V5 S2_V5_!2472 ?x2782)))
 (let ((?x2205 (ite MW_S1_V5 S1_V5_!2477 ?x2961)))
 (let (($x2878 (not R_S2_V5)))
 (let ((?x1780 (ite MW_S1_V3 S1_V3_!2465 V3_0)))
 (let ((?x2415 (ite MW_S2_V3 S2_V3_!2470 ?x1780)))
 (let ((?x3218 (ite MW_S1_V3 S1_V3_!2475 ?x2415)))
 (let (($x2024 (not R_S2_V3)))
 (let (($x3166 (and (or (not R_S2_V1) (= ?x3312 ?x5939)) (or $x2024 (= ?x3218 ?x1780)) (or (not R_S2_V2) (= ?x5926 ?x1550)) (or $x2878 (= ?x2205 ?x2782)) (or $x1853 (= ?x828 ?x1876)))))
 (let (($x1455 (not $x3166)))
 (let (($x2401 (= S2_V3_!2480 S2_V3_!2459)))
 (let (($x2084 (and (or (not R_S2_V1) (= ?x3312 ?x3319)) (or $x2024 (= ?x3218 (ite MW_S2_V3 S2_V3_!2454 (ite MW_S1_V3 S1_V3_!2448 V3_0)))) (or (not R_S2_V2) (= ?x5926 (ite MW_S2_V2 S2_V2_!2455 ?x5882))) (or $x2878 (= ?x2205 (ite MW_S2_V5 S2_V5_!2456 (ite MW_S1_V5 S1_V5_!2450 V5_0)))) (or $x1853 (= ?x828 (ite MW_S2_V4 S2_V4_!2457 (ite MW_S1_V4 S1_V4_!2451 V4_0)))))))
 (let (($x5872 (not $x2084)))
 (let (($x4062 (= S2_V3_!2470 S2_V3_!2459)))
 (let (($x2713 (and (or (not R_S2_V1) (= ?x5939 ?x3319)) (or $x2024 (= ?x1780 (ite MW_S2_V3 S2_V3_!2454 (ite MW_S1_V3 S1_V3_!2448 V3_0)))) (or (not R_S2_V2) (= ?x1550 (ite MW_S2_V2 S2_V2_!2455 ?x5882))) (or $x2878 (= ?x2782 (ite MW_S2_V5 S2_V5_!2456 (ite MW_S1_V5 S1_V5_!2450 V5_0)))) (or $x1853 (= ?x1876 (ite MW_S2_V4 S2_V4_!2457 (ite MW_S1_V4 S1_V4_!2451 V4_0)))))))
 (let (($x1943 (not $x2713)))
 (let (($x1543 (= S2_V3_!2454 S2_V3_!2480)))
 (let (($x3368 (and (or (not R_S2_V1) (= E1_!2452 ?x3312)) (or $x2024 (= (ite MW_S1_V3 S1_V3_!2448 V3_0) ?x3218)) (or (not R_S2_V2) (= ?x5882 ?x5926)) (or $x2878 (= (ite MW_S1_V5 S1_V5_!2450 V5_0) ?x2205)) (or $x1853 (= (ite MW_S1_V4 S1_V4_!2451 V4_0) ?x828)))))
 (let (($x2776 (not $x3368)))
 (let (($x5851 (= S2_V3_!2454 S2_V3_!2470)))
 (let (($x5129 (and (or (not R_S2_V1) (= E1_!2452 ?x5939)) (or $x2024 (= (ite MW_S1_V3 S1_V3_!2448 V3_0) ?x1780)) (or (not R_S2_V2) (= ?x5882 ?x1550)) (or $x2878 (= (ite MW_S1_V5 S1_V5_!2450 V5_0) ?x2782)) (or $x1853 (= (ite MW_S1_V4 S1_V4_!2451 V4_0) ?x1876)))))
 (let (($x4073 (not $x5129)))
 (let (($x2210 (= S2_V3_!2454 S2_V3_!2459)))
 (let (($x3690 (or $x1853 (= (ite MW_S1_V4 S1_V4_!2451 V4_0) (ite MW_S2_V4 S2_V4_!2457 (ite MW_S1_V4 S1_V4_!2451 V4_0))))))
 (let (($x2662 (or $x2878 (= (ite MW_S1_V5 S1_V5_!2450 V5_0) (ite MW_S2_V5 S2_V5_!2456 (ite MW_S1_V5 S1_V5_!2450 V5_0))))))
 (let (($x1716 (or $x2024 (= (ite MW_S1_V3 S1_V3_!2448 V3_0) (ite MW_S2_V3 S2_V3_!2454 (ite MW_S1_V3 S1_V3_!2448 V3_0))))))
 (let (($x318 (and (or (not R_S2_V1) (= E1_!2452 ?x3319)) $x1716 (or (not R_S2_V2) (= ?x5882 (ite MW_S2_V2 S2_V2_!2455 ?x5882))) $x2662 $x3690)))
 (let (($x5960 (not $x318)))
 (let (($x3360 (= S2_V2_!2481 S2_V2_!2455)))
 (let (($x3885 (and (or (not R_S2_V1) (= ?x3312 E1_!2452)) (or $x2024 (= ?x3218 (ite MW_S1_V3 S1_V3_!2448 V3_0))) (or (not R_S2_V2) (= ?x5926 ?x5882)) (or $x2878 (= ?x2205 (ite MW_S1_V5 S1_V5_!2450 V5_0))) (or $x1853 (= ?x828 (ite MW_S1_V4 S1_V4_!2451 V4_0))))))
 (let (($x2339 (not $x3885)))
 (let (($x5191 (= S2_V2_!2471 S2_V2_!2481)))
 (let (($x3873 (and (or (not R_S2_V1) (= ?x5939 ?x3312)) (or $x2024 (= ?x1780 ?x3218)) (or (not R_S2_V2) (= ?x1550 ?x5926)) (or $x2878 (= ?x2782 ?x2205)) (or $x1853 (= ?x1876 ?x828)))))
 (let (($x2327 (not $x3873)))
 (let (($x1309 (= S2_V2_!2471 S2_V2_!2455)))
 (let (($x2141 (and (or (not R_S2_V1) (= ?x5939 E1_!2452)) (or $x2024 (= ?x1780 (ite MW_S1_V3 S1_V3_!2448 V3_0))) (or (not R_S2_V2) (= ?x1550 ?x5882)) (or $x2878 (= ?x2782 (ite MW_S1_V5 S1_V5_!2450 V5_0))) (or $x1853 (= ?x1876 (ite MW_S1_V4 S1_V4_!2451 V4_0))))))
 (let (($x4196 (not $x2141)))
 (let (($x5929 (not R_S1_V4)))
 (let (($x108 (or $x5929 (= ?x3626 V4_0))))
 (let (($x4084 (not R_S1_V5)))
 (let (($x5902 (or $x4084 (= ?x2961 V5_0))))
 (let (($x3305 (not R_S1_V2)))
 (let (($x5988 (or $x3305 (= ?x2769 V2_0))))
 (let (($x3240 (not R_S1_V3)))
 (let (($x427 (or $x3240 (= ?x2415 V3_0))))
 (let (($x2152 (and (or (not R_S1_V1) (= ?x2521 (+ (- 1) E1_!2446))) $x427 $x5988 $x5902 $x108)))
 (let (($x1826 (not $x2152)))
 (let (($x30 (= S1_V4_!2468 S1_V4_!2478)))
 (let (($x2274 (or $x5929 (= V4_0 ?x3626))))
 (let (($x5485 (or $x4084 (= V5_0 ?x2961))))
 (let (($x2275 (or $x3305 (= V2_0 ?x2769))))
 (let (($x2711 (or $x3240 (= V3_0 ?x2415))))
 (let (($x3147 (not (and (or (not R_S1_V1) (= E1_!2463 ?x1657)) $x2711 $x2275 $x5485 $x2274))))
 (let (($x876 (and (or (not R_S2_V1) (= ?x2678 (+ (- 1) ?x3312))) (or $x2024 (= (ite MW_S2_V3 S2_V3_!2454 (ite MW_S1_V3 S1_V3_!2448 V3_0)) ?x3218)) (or (not R_S2_V2) (= (ite MW_S2_V2 S2_V2_!2455 ?x5882) ?x5926)) (or $x2878 (= (ite MW_S2_V5 S2_V5_!2456 (ite MW_S1_V5 S1_V5_!2450 V5_0)) ?x2205)) (or $x1853 (= (ite MW_S2_V4 S2_V4_!2457 (ite MW_S1_V4 S1_V4_!2451 V4_0)) ?x828)))))
 (let (($x2419 (not $x876)))
 (let (($x1346 (and (or (not R_S1_V1) (= ?x2521 (+ (- 1) E1_!2463))) $x427 $x5988 $x5902 $x108)))
 (let (($x1708 (not $x1346)))
 (let (($x5358 (and (or (not R_S2_V1) (= ?x2678 (+ (- 1) ?x5939))) (or $x2024 (= (ite MW_S2_V3 S2_V3_!2454 (ite MW_S1_V3 S1_V3_!2448 V3_0)) ?x1780)) (or (not R_S2_V2) (= (ite MW_S2_V2 S2_V2_!2455 ?x5882) ?x1550)) (or $x2878 (= (ite MW_S2_V5 S2_V5_!2456 (ite MW_S1_V5 S1_V5_!2450 V5_0)) ?x2782)) (or $x1853 (= (ite MW_S2_V4 S2_V4_!2457 (ite MW_S1_V4 S1_V4_!2451 V4_0)) ?x1876)))))
 (let (($x2397 (not $x5358)))
 (let (($x430 (= E1_!2463 E1_!2446)))
 (let (($x541 (and (or (not R_E1_V2) (= ?x5882 V2_0)) (or (not R_E1_V5) (= (ite MW_S1_V5 S1_V5_!2450 V5_0) V5_0)) (or (not R_E1_V4) (= (ite MW_S1_V4 S1_V4_!2451 V4_0) V4_0)))))
 (let (($x2732 (not $x541)))
 (let (($x3586 (or $x1853 (= (ite MW_S2_V4 S2_V4_!2457 (ite MW_S1_V4 S1_V4_!2451 V4_0)) (ite MW_S1_V4 S1_V4_!2451 V4_0)))))
 (let (($x2911 (or $x2878 (= (ite MW_S2_V5 S2_V5_!2456 (ite MW_S1_V5 S1_V5_!2450 V5_0)) (ite MW_S1_V5 S1_V5_!2450 V5_0)))))
 (let (($x5203 (or $x2024 (= (ite MW_S2_V3 S2_V3_!2454 (ite MW_S1_V3 S1_V3_!2448 V3_0)) (ite MW_S1_V3 S1_V3_!2448 V3_0)))))
 (let (($x1326 (and (or (not R_S2_V1) (= ?x2678 (+ (- 1) E1_!2452))) $x5203 (or (not R_S2_V2) (= (ite MW_S2_V2 S2_V2_!2455 ?x5882) ?x5882)) $x2911 $x3586)))
 (let (($x2151 (or (not (and (or (not R_S1_V1) (= E1_!2446 ?x1657)) $x2711 $x2275 $x5485 $x2274)) (= S1_V1_!2447 S1_V1_!2474))))
 (let (($x2770 (and $x2151 (or (not (or (not R_S1_V1) $x430)) (= S1_V1_!2464 S1_V1_!2447)) (or $x3147 (= S1_V1_!2464 S1_V1_!2474)) (or $x4073 (= S2_V5_!2456 S2_V5_!2472)) (or (not $x1326) (= S2_V5_!2461 S2_V5_!2456)) (or $x2397 (= S2_V5_!2461 S2_V5_!2472)) (or $x2339 (= S2_V5_!2482 S2_V5_!2456)) (or $x5872 (= S2_V5_!2482 S2_V5_!2461)) (or $x1455 (= S2_V5_!2482 S2_V5_!2472)) (or (not (or (not R_S1_V1) $x430)) (= S1_V3_!2465 S1_V3_!2448)) (or $x3147 (= S1_V3_!2465 S1_V3_!2475)) (or $x1826 (= S1_V3_!2475 S1_V3_!2448)) (or (not (or (not R_S1_V1) $x430)) (= S1_V2_!2466 S1_V2_!2449)) (or $x1826 (= S1_V2_!2476 S1_V2_!2449)) (or $x1708 (= S1_V2_!2476 S1_V2_!2466)) (or $x2732 (= E1_!2452 E1_!2446)) (or $x2732 (= E1_!2452 E1_!2463)) $x430 (or $x5960 (= S2_V4_!2457 S2_V4_!2462)) (or $x4073 (= S2_V4_!2457 S2_V4_!2473)) (or $x2776 (= S2_V4_!2457 S2_V4_!2483)) (or $x2397 (= S2_V4_!2462 S2_V4_!2473)) (or $x2419 (= S2_V4_!2462 S2_V4_!2483)) (or $x1455 (= S2_V4_!2483 S2_V4_!2473)) (or (not (or (not R_S1_V1) $x430)) (= S1_V5_!2467 S1_V5_!2450)) (or $x1826 (= S1_V5_!2477 S1_V5_!2450)) (or $x1708 (= S1_V5_!2477 S1_V5_!2467)) (or $x5960 (= S2_V1_!2453 S2_V1_!2458)) (or $x2776 (= S2_V1_!2453 S2_V1_!2479)) (or $x2419 (= S2_V1_!2458 S2_V1_!2479)) (or $x4196 (= S2_V1_!2469 S2_V1_!2453)) (or $x1943 (= S2_V1_!2469 S2_V1_!2458)) (or $x2327 (= S2_V1_!2469 S2_V1_!2479)) (or (not (or (not R_S1_V1) $x430)) (= S1_V4_!2468 S1_V4_!2451)) (or $x3147 $x30) (or $x1826 (= S1_V4_!2478 S1_V4_!2451)) (or $x5960 (= S2_V2_!2455 S2_V2_!2460)) (or $x4196 $x1309) (or $x1943 (= S2_V2_!2471 S2_V2_!2460)) (or $x2327 $x5191) (or $x2339 $x3360) (or $x5872 (= S2_V2_!2481 S2_V2_!2460)) (or $x5960 $x2210) (or $x4073 $x5851) (or $x2776 $x1543) (or $x1943 $x4062) (or $x5872 $x2401) (or $x1455 $x3195) (not MW_S1_V1) (not MW_S1_V2) (or (not MW_S1_V5) W_S1_V5) (or (not MW_S1_V4) W_S1_V4) (or (not MW_S2_V1) W_S2_V1) (or (not MW_S2_V3) W_S2_V3) (or (not MW_S2_V2) W_S2_V2) (or (not MW_S2_V5) W_S2_V5))))
 (or (not $x2770) (not $x1325) (and (= ?x1433 ?x3342) $x329 (= ?x5086 ?x4993) $x5937 $x3730))))))))))))))))))))))))))))))))))))))))))))))))))))))))))))))))))))))))))))))))))))))))))))))
 )
 )
 )
 )
 )
 )
 )
 )
 )
 )
 )
 )
 )
 )
 )
 )
 )
 )
 )
 )
 )
 )
 )
 )
 )
 )
 )
 )
 )
 )
 )
 )
 )
 )
 )
 )
 )
 )
 )
 )
 )
 )
 )
 )
 )
 )
 )
 )
 )
 )
 )
 ))
 (let (($x177 (not (or (and W_S2_V2 R_E1_V2) (and W_S2_V5 R_E1_V5) R_E1_V4))))
 (let (($x295 (= DISJ_W_S2_R_E1 $x177)))
 (let (($x1896 (and W_S2_V5 R_S2_V5)))
 (let (($x3323 (and W_S2_V2 R_S2_V2)))
 (let (($x2552 (and W_S2_V3 R_S2_V3)))
 (let (($x3484 (and W_S2_V1 R_S2_V1)))
 (let (($x703 (= DISJ_W_S2_R_S2 (not (or $x3484 $x2552 $x3323 $x1896 R_S2_V4)))))
 (let (($x2394 (and W_S2_V5 R_S1_V5)))
 (let (($x5774 (and W_S2_V2 R_S1_V2)))
 (let (($x1075 (and W_S2_V3 R_S1_V3)))
 (let (($x1205 (and W_S2_V1 R_S1_V1)))
 (let (($x1504 (= DISJ_W_S2_R_S1 (not (or $x1205 $x1075 $x5774 $x2394 R_S1_V4)))))
 (let (($x323 (= DISJ_W_S1_W_S2 (not (or W_S2_V3 (and W_S1_V5 W_S2_V5) W_S1_V4)))))
 (let (($x3560 (not R_E1_V3)))
 (let (($x1253 (not (or R_S2_V3 (and W_S1_V5 R_S2_V5) (and W_S1_V4 R_S2_V4)))))
 (let (($x885 (= DISJ_W_S1_R_S2 $x1253)))
 (let (($x1620 (not (or R_S1_V3 (and W_S1_V5 R_S1_V5) (and W_S1_V4 R_S1_V4)))))
 (let (($x301 (= DISJ_W_S1_R_S1 $x1620)))
 (let (($x1443 (not R_S1_V1)))
 (let (($x3519 (and $x1443 DISJ_W_S1_R_S1)))
 (let (($x2103 (and $x3913 DISJ_W_S2_R_S1 DISJ_W_S1_R_S1)))
 (let (($x1237 (or $x2103 $x3571 $x3519)))
 (let (($x1369 (not W_S1_V2)))
 (let (($x4827 (not W_S1_V1)))
 (let (($x1152 (not R_E1_V1)))
 (let (($x4221 (and DISJ_W_S1_R_E1 $x1152 $x4827 $x1369 $x1237 W_S1_V3 W_S2_V4 $x301 $x885 $x3560 $x323 $x1504 $x703 $x295 $x2549 $x3385 $x241)))
 (and $x4221 $x144 $x4219 $x3274 $x1438 $x1578 $x42 $x1116 $x2192 $x126 $x1374 $x2270))))))))))))))))))))))))))))))))))))))))))))))))
(check-sat)
